ampl/minesweeper4.dat
# Problem from Gecode/examples/minesweeper.cc  problem 4

param r := 10;
param c := 10;
param game: 1 2 3 4 5 6 7 8 9 10 :=
    1  0 . 0 . 1 . . 1 1 . 
    2  1 . 2 . 2 . 2 2 . . 
    3  . . . . . . 2 . . 2 
    4  . 2 3 . 1 1 . . . . 
    5  0 . . . . . . 2 . 1 
    6  . . . 2 2 . 1 . . . 
    7  . . . . . 3 . 3 2 . 
    8  . 5 . 2 . . . 3 . 1 
    9  . 3 . 1 . . 3 . . . 
   10  . 2 . . . 1 2 . . 0 
;

