essence_savile_row/minesweeper4.param
language ESSENCE' 1.0
$ Problem from Gecode/examples/minesweeper.cc  problem 4
letting r be 10
letting c be 10
letting game be [
      [0,-1,0,-1,1,-1,-1,1,1,-1],
      [1,-1,2,-1,2,-1,2,2,-1,-1],
      [-1,-1,-1,-1,-1,-1,2,-1,-1,2],
      [-1,2,3,-1,1,1,-1,-1,-1,-1],
      [0,-1,-1,-1,-1,-1,-1,2,-1,1],
      [-1,-1,-1,2,2,-1,1,-1,-1,-1],
      [-1,-1,-1,-1,-1,3,-1,3,2,-1],
      [-1,5,-1,2,-1,-1,-1,3,-1,1],
      [-1,3,-1,1,-1,-1,3,-1,-1,-1],
      [-1,2,-1,-1,-1,1,2,-1,-1,0]
     ]
